15 40
25
7 12 8 0
7 7 3 33
1 7 8 12
1 5 3 13
2 3 5 10
2 6 6 13
2 7 10 33
2 5 4 13
1 3 7 10
1 6 2 13
6 12 9 12
6 9 6 24
2 12 0 0
2 7 0 12
3 10 3 23
1 4 2 0
1 5 3 18
3 16 0 24
3 5 0 19
2 4 3 0
2 5 4 18
3 10 5 0
3 9 2 4
3 16 12 24
3 5 6 19
